Cost: 1721
0-2-3-38-29-28-27-22-23-25-31-32-34-0
0-33-30-26-24-36-21-20-13-12-16-14-17-18-19-1-0
0-4-8-37-9-10-11-15-5-7-6-35-0
Cost: 1721
0-4-5-8-37-9-10-11-15-7-6-35-0
0-33-30-26-24-36-21-20-13-12-16-14-17-18-19-1-0
0-2-3-38-29-28-27-22-23-25-31-32-34-0
Cost: 1721
0-2-3-38-29-28-27-22-23-25-31-32-34-0
0-33-30-26-24-36-21-20-13-12-16-14-17-18-19-1-0
0-4-8-37-9-10-11-15-5-7-6-35-0
Cost: 1721
0-2-3-38-29-28-27-22-23-25-31-32-34-0
0-33-30-26-24-36-21-20-13-12-16-14-17-18-19-1-0
0-4-8-37-9-10-11-15-5-7-6-35-0
Cost: 1721
0-4-8-37-9-10-11-15-5-7-6-35-0
0-2-3-38-29-28-27-22-23-25-31-32-34-0
0-33-30-26-24-36-21-20-13-12-16-14-17-18-19-1-0
Cost: 1721
0-2-3-38-29-28-27-22-23-25-31-32-34-0
0-33-30-26-24-36-21-20-13-12-16-14-17-18-19-1-0
0-4-5-8-37-9-10-11-15-7-6-35-0
Cost: 1721
0-33-30-26-24-36-21-20-13-12-16-14-17-18-19-1-0
0-4-8-37-9-10-11-15-5-7-6-35-0
0-2-3-38-29-28-27-22-23-25-31-32-34-0
Cost: 1721
0-2-3-38-29-28-27-22-23-25-31-32-34-0
0-33-30-26-24-36-21-20-13-12-16-14-17-18-19-1-0
0-4-5-8-37-9-10-11-15-7-6-35-0
Cost: 1721
0-2-3-38-29-28-27-22-23-25-31-32-34-0
0-33-30-26-24-36-21-20-13-12-16-14-17-18-19-1-0
0-4-5-8-37-9-10-11-15-7-6-35-0
Cost: 1721
0-2-3-38-29-28-27-22-23-25-31-32-34-0
0-33-30-26-24-36-21-20-13-12-16-14-17-18-19-1-0
0-4-5-8-37-9-10-11-15-7-6-35-0
Cost: 1721
0-2-3-38-29-28-27-22-23-25-31-32-34-0
0-33-30-26-24-36-21-20-13-12-16-14-17-18-19-1-0
0-4-5-8-37-9-10-11-15-7-6-35-0
Cost: 1721
0-4-8-37-9-10-11-15-5-7-6-35-0
0-2-3-38-29-28-27-22-23-25-31-32-34-0
0-33-30-26-24-36-21-20-13-12-16-14-17-18-19-1-0
Cost: 1721
0-4-8-37-9-10-11-15-5-7-6-35-0
0-2-3-38-29-28-27-22-23-25-31-32-34-0
0-33-30-26-24-36-21-20-13-12-16-14-17-18-19-1-0
Cost: 1721
0-4-8-37-9-10-11-15-5-7-6-35-0
0-2-3-38-29-28-27-22-23-25-31-32-34-0
0-33-30-26-24-36-21-20-13-12-16-14-17-18-19-1-0
Cost: 1721
0-2-3-38-29-28-27-22-23-25-31-32-34-0
0-4-5-8-37-9-10-11-15-7-6-35-0
0-33-30-26-24-36-21-20-13-12-16-14-17-18-19-1-0
Cost: 1721
0-4-8-37-9-10-11-15-5-7-6-35-0
0-2-3-38-29-28-27-22-23-25-31-32-34-0
0-33-30-26-24-36-21-20-13-12-16-14-17-18-19-1-0
Cost: 1721
0-4-8-37-9-10-11-15-5-7-6-35-0
0-2-3-38-29-28-27-22-23-25-31-32-34-0
0-33-30-26-24-36-21-20-13-12-16-14-17-18-19-1-0
Cost: 1721
0-4-8-37-9-10-11-15-5-7-6-35-0
0-2-3-38-29-28-27-22-23-25-31-32-34-0
0-33-30-26-24-36-21-20-13-12-16-14-17-18-19-1-0
Cost: 1721
0-4-8-37-9-10-11-15-5-7-6-35-0
0-2-3-38-29-28-27-22-23-25-31-32-34-0
0-33-30-26-24-36-21-20-13-12-16-14-17-18-19-1-0
Cost: 1721
0-4-8-37-9-10-11-15-5-7-6-35-0
0-2-3-38-29-28-27-22-23-25-31-32-34-0
0-33-30-26-24-36-21-20-13-12-16-14-17-18-19-1-0
Cost: 1721
0-4-5-8-37-9-10-11-15-7-6-35-0
0-33-30-26-24-36-21-20-13-12-16-14-17-18-19-1-0
0-2-3-38-29-28-27-22-23-25-31-32-34-0
Cost: 1721
0-2-3-38-29-28-27-22-23-25-31-32-34-0
0-33-30-26-24-36-21-20-13-12-16-14-17-18-19-1-0
0-4-8-37-9-10-11-15-5-7-6-35-0
Cost: 1721
0-2-3-38-29-28-27-22-23-25-31-32-34-0
0-33-30-26-24-36-21-20-13-12-16-14-17-18-19-1-0
0-4-8-37-9-10-11-15-5-7-6-35-0
Cost: 1721
0-33-30-26-24-36-21-20-13-12-16-14-17-18-19-1-0
0-4-8-37-9-10-11-15-5-7-6-35-0
0-2-3-38-29-28-27-22-23-25-31-32-34-0
Cost: 1721
0-33-30-26-24-36-21-20-13-12-16-14-17-18-19-1-0
0-4-8-37-9-10-11-15-5-7-6-35-0
0-2-3-38-29-28-27-22-23-25-31-32-34-0
Cost: 1721
0-2-3-38-29-28-27-22-23-25-31-32-34-0
0-4-5-8-37-9-10-11-15-7-6-35-0
0-33-30-26-24-36-21-20-13-12-16-14-17-18-19-1-0
Cost: 1721
0-33-30-26-24-36-21-20-13-12-16-14-17-18-19-1-0
0-4-8-37-9-10-11-15-5-7-6-35-0
0-2-3-38-29-28-27-22-23-25-31-32-34-0
Cost: 1721
0-4-5-8-37-9-10-11-15-7-6-35-0
0-33-30-26-24-36-21-20-13-12-16-14-17-18-19-1-0
0-2-3-38-29-28-27-22-23-25-31-32-34-0
Cost: 1721
0-2-3-38-29-28-27-22-23-25-31-32-34-0
0-33-30-26-24-36-21-20-13-12-16-14-17-18-19-1-0
0-4-8-37-9-10-11-15-5-7-6-35-0
Cost: 1721
0-2-3-38-29-28-27-22-23-25-31-32-34-0
0-33-30-26-24-36-21-20-13-12-16-14-17-18-19-1-0
0-4-8-37-9-10-11-15-5-7-6-35-0
Cost: 1721
0-2-3-38-29-28-27-22-23-25-31-32-34-0
0-33-30-26-24-36-21-20-13-12-16-14-17-18-19-1-0
0-4-8-37-9-10-11-15-5-7-6-35-0
Cost: 1723
0-4-5-8-37-9-10-11-15-7-6-0
0-2-3-16-38-29-28-27-22-23-25-31-32-34-0
0-35-33-30-26-24-36-21-20-13-12-14-17-18-19-1-0
Cost: 1728
0-2-4-8-37-9-10-11-15-5-7-6-0
0-3-38-29-28-27-20-13-12-16-14-17-18-19-1-0
0-35-33-30-26-24-36-21-22-23-25-31-32-34-0
Cost: 1721
0-2-3-38-29-28-27-22-23-25-31-32-34-0
0-4-8-37-9-10-11-15-5-7-6-35-0
0-33-30-26-24-36-21-20-13-12-16-14-17-18-19-1-0
Cost: 1721
0-2-3-38-29-28-27-22-23-25-31-32-34-0
0-33-30-26-24-36-21-20-13-12-16-14-17-18-19-1-0
0-4-8-37-9-10-11-15-5-7-6-35-0
